47
400
312	1
296	1
290	1
289	1
283	1
279	1
276	1
274	1
268	1
265	1
264	1
259	1
250	1
246	1
241	1
239	2
236	1
231	1
223	1
220	1
219	1
214	1
209	1
207	1
203	1
201	1
196	1
177	1
162	1
157	1
155	1
152	1
149	1
148	1
145	1
144	2
139	1
136	1
133	1
120	1
113	2
112	1
110	1
102	1
98	1
97	1
85	1
